Cn=200;
Ct=100;
Ch=150;

diasRegimen=2;
pctRegimen=80;

Nmax=1000;
Hmax=300;
Tmax=500;

s=4;
n=10;

dsn=[|200,300,50,100|100,50,300,100|50,50,50,50|100,200,100,200|100,300,50,100|
      100,50,300,100|100,100,100,100|100,300,50,100|500,50,1000,50|100,50,50,300|]